(declare-datatypes () ((Nat (Z) (S (p Nat)))))
(declare-datatypes () ((list (nil) (cons (head Nat) (tail list)))))
(declare-fun length (list) Nat)
(declare-fun le (Nat Nat) Bool)
(declare-fun insert2 (Nat list) list)
(declare-fun isort (list) list)
(assert
  (not (forall ((x list)) (= (length (isort x)) (length x)))))
(assert
  (forall ((x list))
    (= (length x) (ite (is-cons x) (S (length (tail x))) Z))))
(assert
  (forall ((x Nat) (y Nat))
    (= (le x y)
      (ite (is-S x) (ite (is-S y) (le (p x) (p y)) false) true))))
(assert
  (forall ((x Nat) (y list))
    (= (insert2 x y)
      (ite
        (is-cons y)
        (ite
          (le x (head y)) (cons x (cons (head y) (tail y)))
          (cons (head y) (insert2 x (tail y))))
        (cons x nil)))))
(assert
  (forall ((x list))
    (= (isort x)
      (ite (is-cons x) (insert2 (head x) (isort (tail x))) nil))))
(check-sat)
